/* Cplex Data generated on 2017-12-16 */

k = 10;

b = 5;

AtomicConstraints = {
	 <6, 7>,
	 <6, 10>,
	 <6, 8>,
	 <9, 6>,
	 <9, 7>,
	 <9, 10>,
	 <9, 8>,
	 <8, 7>,
	 <8, 10>,
	 }; 

SoftAtomicConstraints = {
	 <3, 2>,
	 <4, 3>,
	 <5, 4>,
	 <7, 10>,
	 }; 

DisjunctiveConstraints = {
	 <3, 4, 3, 2>,
	 }; 

DirectSuccessors = {
	 }; 

